50 8
500 818
617 695
669 704
514 166
614 355
820 867
718 339
428 831
903 878
727 512
602 632
784 774
966 688
66 903
796 772
662 242
770 928
532 846
411 251
659 59
273 343
797 602
627 595
822 703
834 660
733 558
642 798
738 733
574 612
521 749
799 934
700 936
919 88
784 725
534 621
941 770
630 243
798 533
513 234
790 566
397 830
552 891
682 637
664 536
429 140
610 47
961 552
310 347
611 545
235 851
